c NeuroCodeBench 2.0 CNF formula with verdict Unsat
p cnf 12 43
-1 7 2 -11 -6 9 0
1 -12 7 6 3 -4 -2 -11 8 0
-1 7 -2 6 -5 10 0
1 -12 7 6 -3 2 0
-1 7 2 -11 6 -8 0
-1 -7 -4 10 -9 8 0
1 12 4 -2 0
1 -12 7 -6 11 -5 -2 -4 0
-1 7 -2 6 5 -8 -3 0
-1 7 -2 6 5 -8 3 0
-1 -7 4 10 -2 0
1 -12 7 6 3 -4 -2 -11 -8 0
-1 -7 -4 10 9 -5 12 -3 0
-1 7 -2 6 5 8 0
1 -12 7 6 3 -4 2 0
1 -12 7 6 3 4 -9 0
-1 -7 -4 10 -9 -8 0
1 -12 -7 0
-1 -7 -4 10 9 -5 12 3 0
1 12 4 2 -7 0
1 -12 7 6 -3 -2 0
1 -12 7 6 3 4 9 10 0
-1 7 2 11 -3 0
1 12 -4 8 0
-1 7 2 11 3 0
1 -12 7 -6 -11 0
1 -12 7 6 3 -4 -2 11 0
-1 -7 4 -10 0
1 -12 7 -6 11 -5 -2 4 0
-1 -7 -4 10 9 -5 -12 0
-1 7 -2 6 -5 -10 0
1 -12 7 -6 11 5 0
-1 -7 -4 -10 11 0
1 12 -4 -8 0
1 12 4 2 7 0
-1 7 -2 -6 0
1 -12 7 -6 11 -5 2 0
-1 7 2 -11 6 8 0
-1 -7 -4 10 9 5 0
-1 7 2 -11 -6 -9 0
-1 -7 -4 -10 -11 0
1 -12 7 6 3 4 9 -10 0
-1 -7 4 10 2 0
